60 60
0 0 4 28
4 0 4 21
8 0 5 20
13 0 18 19
31 0 10 19
41 0 6 18
47 0 3 18
50 0 8 17
50 17 4 17
54 17 3 17
13 19 15 12
28 19 14 12
42 19 8 12
57 17 3 12
58 0 2 12
4 21 9 11
13 31 7 11
20 31 16 10
36 31 11 10
4 32 6 10
50 34 5 10
55 34 5 10
0 28 3 10
20 41 9 8
29 41 7 8
36 41 5 7
0 38 4 7
47 31 3 7
10 32 3 7
20 49 24 7
47 38 2 7
4 42 8 6
13 42 7 6
41 41 2 6
43 41 4 5
57 29 3 5
20 56 24 4
58 12 2 4
50 44 8 3
10 39 3 3
50 47 10 2
4 48 8 2
0 45 4 2
